
--- Job bchfcnet.gms Start 02/08/22 12:23:03 34.3.0 rac355f3 WEX-WEI x86 64bit/MS Windows
--- Applying:
    C:\GAMS\34\gmsprmNT.txt
--- GAMS Parameters defined
    Input C:\Users\dekhi\Desktop\gamsworld\FCNetLib\test\bchfcnet.gms
    PageSize 0
    ScrDir C:\Users\dekhi\Desktop\gamsworld\FCNetLib\test\225a\
    SysDir C:\GAMS\34\
    LogOption 3
    ErrMsg 1
    ErrorLog 99
    IDE 1
    ResLim 3600
    LstTitleLeftAligned 1
Licensee: Eval License                                   S211214|0002AW-GEN
          Ostfalia Hochschule fuer angewandte Wissenschaften        DCE1645
          C:\Users\dekhi\Documents\GAMS\gamslice.txt
          License Admin: Mohamed Ali Dekhil, dekhil.medali@gmail.com       
          Evaluation license: Not for commercial or production use
GAMS 34.3.0   Copyright (C) 1987-2021 GAMS Development. All rights reserved
--- Starting compilation
--- bchfcnet.gms(34) 2 Mb
--- . decl.gms(15) 2 Mb
--- bchfcnet.gms(38) 2 Mb
--- . g55x188c.inc(432) 3 Mb
--- bchfcnet.gms(67) 3 Mb
--- . equs.gms(20) 3 Mb
--- bchfcnet.gms(97) 3 Mb
--- call rm -f bchout_i.gdx startcut.txt startheur.txt cuthist.gdx agap.txt rgap.txt cntfail.txt
--- bchfcnet.gms(118) 3 Mb
--- Starting execution: elapsed 0:00:00.083
--- bchfcnet.gms(490) 4 Mb
--- GDX File (execute_unload) C:\Users\dekhi\Desktop\gamsworld\FCNetLib\test\net.gdx
--- bchfcnet.gms(581) 4 Mb
--- GDXin=C:\Users\dekhi\Desktop\gamsworld\FCNetLib\test\points\g55x188c.gdx
--- GDX File (execute_load) C:\Users\dekhi\Desktop\gamsworld\FCNetLib\test\points\g55x188c.gdx
--- Generating MIP model master
--- bchfcnet.gms(585) 4 Mb
---   244 rows  377 columns  1,129 non-zeroes
---   188 discrete-columns
--- Executing CPLEX (Solvelink=2): elapsed 0:00:00.095

IBM ILOG CPLEX   34.3.0 rac355f3 Released Feb 25, 2021 WEI x86 64bit/MS Window

--- GAMS/Cplex Link licensed for continuous and discrete problems.

Reading parameter(s) from "C:\Users\dekhi\Desktop\gamsworld\FCNetLib\test\cplex.op2"
>>  mipstart 1
Finished reading from "C:\Users\dekhi\Desktop\gamsworld\FCNetLib\test\cplex.op2"

--- Space for names approximately 0.01 Mb
--- Use option 'names no' to turn use of names off
--- GMO memory 0.57 Mb (peak 0.57 Mb)
--- Dictionary memory 0.00 Mb
--- Cplex 20.1.0.0 link memory 0.01 Mb (peak 0.04 Mb)
--- Starting Cplex

Version identifier: 20.1.0.0 | 2020-11-10 | 9bedb6d68
CPXPARAM_Threads                                 1
CPXPARAM_MIP_Display                             4
CPXPARAM_TimeLimit                               3600
CPXPARAM_MIP_Tolerances_AbsMIPGap                0
CPXPARAM_MIP_Tolerances_MIPGap                   0
Generic callback                                 0x50
Processing 1 MIP starts.
MIP start 'm1' defined solution with objective 35464.0000.
1 of 1 MIP starts provided solutions.
MIP start 'm1' defined initial solution with objective 35464.0000.
Tried aggregator 1 time.
MIP Presolve eliminated 54 rows and 1 columns.
MIP Presolve added 108 rows and 0 columns.
Reduced MIP has 297 rows, 376 columns, and 860 nonzeros.
Reduced MIP has 188 binaries, 0 generals, 0 SOSs, and 0 indicators.
Presolve time = 0.00 sec. (0.75 ticks)
Probing fixed 0 vars, tightened 4 bounds.
Probing time = 0.00 sec. (0.05 ticks)
Tried aggregator 1 time.
Detecting symmetries...
MIP Presolve modified 10 coefficients.
Reduced MIP has 297 rows, 376 columns, and 860 nonzeros.
Reduced MIP has 188 binaries, 0 generals, 0 SOSs, and 0 indicators.
Presolve time = 0.00 sec. (0.76 ticks)
Probing time = 0.00 sec. (0.05 ticks)
Clique table members: 3.
MIP emphasis: balance optimality and feasibility.
MIP search method: dynamic search.
Parallel mode: none, using 1 thread.
Tried aggregator 1 time.
LP Presolve eliminated 134 rows and 134 columns.
Aggregator did 54 substitutions.
Reduced LP has 109 rows, 188 columns, and 484 nonzeros.
Presolve time = 0.00 sec. (0.22 ticks)

Iteration log . . .
Iteration:     1   Dual objective     =          5124.000000
Initializing dual steep norms . . .
Root relaxation solution time = 0.00 sec. (0.62 ticks)

        Nodes                                         Cuts/
   Node  Left     Objective  IInf  Best Integer    Best Bound    ItCnt     Gap

*     0+    0                        35464.0000        0.0000           100.00%
Found incumbent of value 35464.000000 after 0.00 sec. (2.78 ticks)
      0     0    22549.3940    38    35464.0000    22549.3940       55   36.42%
      0     0    32949.5948    52    35464.0000     Cuts: 141      152    7.09%
      0     0    34212.9457    39    35464.0000     Cuts: 111      201    3.53%
      0     0    34836.4159    60    35464.0000      Cuts: 71      256    1.77%
      0     0    35149.7011    33    35464.0000      Cuts: 84      289    0.89%
      0     0    35273.6918    26    35464.0000      Cuts: 39      317    0.54%
Detecting symmetries...
      0     0    35338.6924    10    35464.0000      Cuts: 30      328    0.35%
      0     0    35345.4232     4    35464.0000       Cuts: 5      332    0.33%
      0     0    35351.8055    22    35464.0000    MIRcuts: 3      345    0.32%
      0     0    35354.1550     4    35464.0000       Cuts: 4      346    0.31%
      0     0    35368.4565    53    35464.0000       Cuts: 6      383    0.27%
      0     0    35388.5209    57    35464.0000      Cuts: 28      397    0.21%
      0     0    35394.5872     3    35464.0000      Cuts: 32      403    0.20%
      0     0    35396.6488    32    35464.0000   Flowcuts: 1      423    0.19%
      0     0    35400.8579    10    35464.0000      Cuts: 10      426    0.18%
      0     0    35413.7320    10    35464.0000       Cuts: 6      433    0.14%
Detecting symmetries...
      0     2    35413.7320    10    35464.0000    35419.8140      433    0.12%
Elapsed time = 0.11 sec. (81.99 ticks, tree = 0.01 MB, solutions = 1)
*     5     0      integral     0    35464.0000    35420.3112      452    0.12%
Found incumbent of value 35464.000000 after 0.11 sec. (83.24 ticks)

Cover cuts applied:  27
Implied bound cuts applied:  5
Flow cuts applied:  81
Mixed integer rounding cuts applied:  26
Flow path cuts applied:  16
Multi commodity flow cuts applied:  1
Lift and project cuts applied:  1
Gomory fractional cuts applied:  15

Root node processing (before b&c):
  Real time             =    0.11 sec. (81.98 ticks)
Sequential b&c:
  Real time             =    0.01 sec. (1.36 ticks)
                          ------------
Total (root+branch&cut) =    0.13 sec. (83.35 ticks)

--- MIP status (101): integer optimal solution.
--- Cplex Time: 0.12sec (det. 83.35 ticks)

--- Fixing integer variables and solving final LP...

Version identifier: 20.1.0.0 | 2020-11-10 | 9bedb6d68
CPXPARAM_Advance                                 2
CPXPARAM_Threads                                 1
CPXPARAM_MIP_Display                             4
CPXPARAM_TimeLimit                               3600
CPXPARAM_MIP_Tolerances_AbsMIPGap                0
CPXPARAM_MIP_Tolerances_MIPGap                   0
Tried aggregator 1 time.
LP Presolve eliminated 243 rows and 377 columns.
All rows and columns eliminated.
Presolve time = 0.00 sec. (0.14 ticks)

--- Fixed MIP status (1): optimal.
--- Cplex Time: 0.00sec (det. 0.24 ticks)


Proven optimal solution
MIP Solution:        35464.000000    (452 iterations, 6 nodes)
Final Solve:         35464.000000    (0 iterations)

Best possible:       35464.000000
Absolute gap:            0.000000
Relative gap:            0.000000

--- Reading solution for model master
*** Status: Normal completion
--- Job bchfcnet.gms Stop 02/08/22 12:23:03 elapsed 0:00:00.260
